120
150
23
78
55
70
22
58
76
52
93
72
45
74
76
27
41
85
59
47
93
43
62
33
68
34
59
80
92
36
60
92
52
92
73
25
24
38
78
33
77
58
90
23
72
22
71
29
47
32
58
57
43
45
95
71
100
24
62
53
43
36
57
71
20
72
99
78
47
55
95
51
45
85
73
85
46
35
74
62
52
58
83
56
57
74
29
51
95
31
81
55
93
37
47
30
58
43
49
39
72
43
22
63
100
20
43
49
49
24
25
39
22
52
27
78
92
49
72
100
58
49
